p wcnf 107 160 161 
1 -46 53 0 
1 19 98 0 
1 -83 92 0 
1 50 6 0 
1 87 -60 0 
1 77 -65 0 
1 84 39 0 
1 56 66 0 
1 -101 7 0 
1 35 25 0 
1 39 -97 0 
1 -78 32 0 
1 -14 44 0 
1 -4 59 0 
1 53 52 0 
1 -5 -8 0 
1 -76 -6 0 
1 107 104 0 
1 -91 -61 0 
1 -30 79 0 
1 16 38 0 
1 28 41 0 
1 107 -62 0 
1 -10 44 0 
1 27 -48 0 
1 -1 -39 0 
1 -68 41 0 
1 -88 -68 0 
1 28 -82 0 
1 -57 -74 0 
1 47 87 0 
1 70 36 0 
1 -5 54 0 
1 -101 10 0 
1 -98 96 0 
1 -38 -84 0 
1 83 12 0 
1 60 -2 0 
1 45 107 0 
1 39 69 0 
1 52 -86 0 
1 74 -88 0 
1 39 48 0 
1 74 30 0 
1 59 33 0 
1 -68 44 0 
1 53 6 0 
1 -29 -104 0 
1 57 18 0 
1 -74 14 0 
1 -89 18 0 
1 93 91 0 
1 -73 45 0 
1 -42 -29 0 
1 3 -68 0 
1 73 -43 0 
1 69 -56 0 
1 51 -57 0 
1 -57 100 0 
1 -95 -50 0 
1 91 -59 0 
1 72 -66 0 
1 -97 14 0 
1 -46 -73 0 
1 -60 98 0 
1 -9 98 0 
1 80 -71 0 
1 -16 -94 0 
1 60 85 0 
1 -62 -25 0 
1 -7 -13 0 
1 4 25 0 
1 -81 83 0 
1 -15 66 0 
1 -33 -99 0 
1 -87 -44 0 
1 33 83 0 
1 -92 104 0 
1 -19 104 0 
1 100 -6 0 
1 82 -90 0 
1 -78 -14 0 
1 89 -57 0 
1 -42 61 0 
1 -24 -36 0 
1 91 98 0 
1 -57 107 0 
1 53 70 0 
1 -3 -41 0 
1 -85 -100 0 
1 -55 54 0 
1 22 -82 0 
1 73 95 0 
1 36 -4 0 
1 -105 32 0 
1 29 -67 0 
1 -10 51 0 
1 12 -32 0 
1 -75 32 0 
1 -105 -49 0 
1 77 -70 0 
1 100 -2 0 
1 51 38 0 
1 -3 100 0 
1 71 -68 0 
1 7 -82 0 
1 39 -94 0 
1 -21 91 0 
1 -69 102 0 
1 -3 -54 0 
1 -103 -29 0 
1 -35 -64 0 
1 49 -88 0 
1 32 -66 0 
1 6 -50 0 
1 2 -10 0 
1 -103 81 0 
1 99 63 0 
1 76 -86 0 
1 96 105 0 
1 -103 -67 0 
1 6 79 0 
1 19 -32 0 
1 41 92 0 
1 -87 -52 0 
1 34 20 0 
1 86 76 0 
1 57 -35 0 
1 -71 90 0 
1 69 82 0 
1 14 67 0 
1 73 90 0 
1 -23 20 0 
1 11 -99 0 
1 72 -77 0 
1 -36 100 0 
1 -26 16 0 
1 -58 -61 0 
1 57 -12 0 
1 97 -18 0 
1 -91 105 0 
1 39 -79 0 
1 -35 59 0 
1 -55 -46 0 
1 -62 49 0 
1 21 -33 0 
1 1 -13 0 
1 20 2 0 
1 -77 -53 0 
1 54 -12 0 
1 38 84 0 
1 27 -37 0 
1 -100 56 0 
1 87 -100 0 
1 29 -23 0 
1 -3 -79 0 
1 92 -47 0 
1 -87 90 0 
1 -78 -18 0 
1 52 -89 0 
